p cnf 335 1137
c p weight 134 -1 0
c p weight -134 1 0
c p weight 136 6.12323399573676603586882014729198302312846062338790031898128063403419218957424163818359375E-17 0
c p weight -136 1 0
c p weight 137 1 0
c p weight -137 1 0
c p weight 138 -1 0
c p weight -138 1 0
c p weight 140 -1 0
c p weight -140 1 0
c p weight 143 -1 0
c p weight -143 1 0
c p weight 146 -1 0
c p weight -146 1 0
c p weight 149 -1 0
c p weight -149 1 0
c p weight 152 -1 0
c p weight -152 1 0
c p weight 155 -1 0
c p weight -155 1 0
c p weight 158 -1 0
c p weight -158 1 0
c p weight 161 -1 0
c p weight -161 1 0
c p weight 164 -1 0
c p weight -164 1 0
c p weight 167 -1 0
c p weight -167 1 0
c p weight 170 -1 0
c p weight -170 1 0
c p weight 173 -1 0
c p weight -173 1 0
c p weight 176 -1 0
c p weight -176 1 0
c p weight 179 -1 0
c p weight -179 1 0
c p weight 182 -1 0
c p weight -182 1 0
c p weight 185 -1 0
c p weight -185 1 0
c p weight 188 -1 0
c p weight -188 1 0
c p weight 191 -1 0
c p weight -191 1 0
c p weight 194 -1 0
c p weight -194 1 0
c p weight 197 -1 0
c p weight -197 1 0
c p weight 200 -1 0
c p weight -200 1 0
c p weight 203 -1 0
c p weight -203 1 0
c p weight 206 -1 0
c p weight -206 1 0
c p weight 209 -1 0
c p weight -209 1 0
c p weight 212 -1 0
c p weight -212 1 0
c p weight 215 -1 0
c p weight -215 1 0
c p weight 218 -1 0
c p weight -218 1 0
c p weight 221 -1 0
c p weight -221 1 0
c p weight 224 -1 0
c p weight -224 1 0
c p weight 227 -1 0
c p weight -227 1 0
c p weight 230 -1 0
c p weight -230 1 0
c p weight 233 -1 0
c p weight -233 1 0
c p weight 236 -1 0
c p weight -236 1 0
c p weight 239 -1 0
c p weight -239 1 0
c p weight 242 -1 0
c p weight -242 1 0
c p weight 245 -1 0
c p weight -245 1 0
c p weight 248 -1 0
c p weight -248 1 0
c p weight 251 -1 0
c p weight -251 1 0
c p weight 254 -1 0
c p weight -254 1 0
c p weight 257 -1 0
c p weight -257 1 0
c p weight 260 -1 0
c p weight -260 1 0
c p weight 263 -1 0
c p weight -263 1 0
c p weight 266 -1 0
c p weight -266 1 0
c p weight 269 -1 0
c p weight -269 1 0
c p weight 272 -1 0
c p weight -272 1 0
c p weight 275 -1 0
c p weight -275 1 0
c p weight 278 -1 0
c p weight -278 1 0
c p weight 281 -1 0
c p weight -281 1 0
c p weight 284 -1 0
c p weight -284 1 0
c p weight 287 -1 0
c p weight -287 1 0
c p weight 290 -1 0
c p weight -290 1 0
c p weight 293 -1 0
c p weight -293 1 0
c p weight 296 -1 0
c p weight -296 1 0
c p weight 299 -1 0
c p weight -299 1 0
c p weight 302 -1 0
c p weight -302 1 0
c p weight 305 -1 0
c p weight -305 1 0
c p weight 308 -1 0
c p weight -308 1 0
c p weight 311 -1 0
c p weight -311 1 0
c p weight 314 -1 0
c p weight -314 1 0
c p weight 317 -1 0
c p weight -317 1 0
c p weight 320 -1 0
c p weight -320 1 0
c p weight 323 -1 0
c p weight -323 1 0
c p weight 326 -1 0
c p weight -326 1 0
c p weight 329 -1 0
c p weight -329 1 0
c p weight 332 -1 0
c p weight -332 1 0
c p weight 335 -1 0
c p weight -335 1 0
-131 0
-129 0
-127 0
-125 0
-123 0
-121 0
-119 0
-117 0
-115 0
-113 0
-111 0
-109 0
-107 0
-105 0
-103 0
-101 0
-99 0
-97 0
-95 0
-93 0
-91 0
-89 0
-87 0
-85 0
-83 0
-81 0
-79 0
-77 0
-75 0
-73 0
-71 0
-69 0
-67 0
-65 0
-63 0
-61 0
-59 0
-57 0
-55 0
-53 0
-51 0
-49 0
-47 0
-45 0
-43 0
-41 0
-39 0
-37 0
-35 0
-33 0
-31 0
-29 0
-27 0
-25 0
-23 0
-21 0
-19 0
-17 0
-15 0
-13 0
-11 0
-9 0
-7 0
-5 0
-3 0
-1 0
133 131 -132 0
133 -131 132 0
-133 131 132 0
-133 -131 -132 0
-134 131 0
-134 132 0
134 -131 -132 0
135 -131 133 0
-135 131 133 0
-136 133 0
135 -136 -131 0
-135 -136 131 0
135 136 131 -133 0
-135 136 -131 -133 0
-137 133 0
135 -137 131 0
-135 -137 -131 0
135 137 -131 -133 0
-135 137 131 -133 0
-138 135 0
-138 133 0
-138 -131 0
138 -135 131 -133 0
139 135 -133 0
139 -135 133 0
-139 135 133 0
-139 -135 -133 0
-140 135 0
-140 133 0
140 -135 -133 0
141 135 -129 0
141 -135 129 0
-141 135 129 0
-141 -135 -129 0
142 139 -130 0
142 -139 130 0
-142 139 130 0
-142 -139 -130 0
-143 135 0
-143 130 0
-143 129 -139 0
-143 -129 139 0
143 -135 129 139 -130 0
143 -135 -129 -139 -130 0
144 141 -127 0
144 -141 127 0
-144 141 127 0
-144 -141 -127 0
145 130 -128 0
145 -130 128 0
-145 130 128 0
-145 -130 -128 0
-146 141 0
-146 128 0
-146 127 -130 0
-146 -127 130 0
146 -141 127 130 -128 0
146 -141 -127 -130 -128 0
147 144 -125 0
147 -144 125 0
-147 144 125 0
-147 -144 -125 0
148 128 -126 0
148 -128 126 0
-148 128 126 0
-148 -128 -126 0
-149 144 0
-149 126 0
-149 125 -128 0
-149 -125 128 0
149 -144 125 128 -126 0
149 -144 -125 -128 -126 0
150 147 -123 0
150 -147 123 0
-150 147 123 0
-150 -147 -123 0
151 126 -124 0
151 -126 124 0
-151 126 124 0
-151 -126 -124 0
-152 147 0
-152 124 0
-152 123 -126 0
-152 -123 126 0
152 -147 123 126 -124 0
152 -147 -123 -126 -124 0
153 150 -121 0
153 -150 121 0
-153 150 121 0
-153 -150 -121 0
154 124 -122 0
154 -124 122 0
-154 124 122 0
-154 -124 -122 0
-155 150 0
-155 122 0
-155 121 -124 0
-155 -121 124 0
155 -150 121 124 -122 0
155 -150 -121 -124 -122 0
156 153 -119 0
156 -153 119 0
-156 153 119 0
-156 -153 -119 0
157 122 -120 0
157 -122 120 0
-157 122 120 0
-157 -122 -120 0
-158 153 0
-158 120 0
-158 119 -122 0
-158 -119 122 0
158 -153 119 122 -120 0
158 -153 -119 -122 -120 0
159 156 -117 0
159 -156 117 0
-159 156 117 0
-159 -156 -117 0
160 120 -118 0
160 -120 118 0
-160 120 118 0
-160 -120 -118 0
-161 156 0
-161 118 0
-161 117 -120 0
-161 -117 120 0
161 -156 117 120 -118 0
161 -156 -117 -120 -118 0
162 159 -115 0
162 -159 115 0
-162 159 115 0
-162 -159 -115 0
163 118 -116 0
163 -118 116 0
-163 118 116 0
-163 -118 -116 0
-164 159 0
-164 116 0
-164 115 -118 0
-164 -115 118 0
164 -159 115 118 -116 0
164 -159 -115 -118 -116 0
165 162 -113 0
165 -162 113 0
-165 162 113 0
-165 -162 -113 0
166 116 -114 0
166 -116 114 0
-166 116 114 0
-166 -116 -114 0
-167 162 0
-167 114 0
-167 113 -116 0
-167 -113 116 0
167 -162 113 116 -114 0
167 -162 -113 -116 -114 0
168 165 -111 0
168 -165 111 0
-168 165 111 0
-168 -165 -111 0
169 114 -112 0
169 -114 112 0
-169 114 112 0
-169 -114 -112 0
-170 165 0
-170 112 0
-170 111 -114 0
-170 -111 114 0
170 -165 111 114 -112 0
170 -165 -111 -114 -112 0
171 168 -109 0
171 -168 109 0
-171 168 109 0
-171 -168 -109 0
172 112 -110 0
172 -112 110 0
-172 112 110 0
-172 -112 -110 0
-173 168 0
-173 110 0
-173 109 -112 0
-173 -109 112 0
173 -168 109 112 -110 0
173 -168 -109 -112 -110 0
174 171 -107 0
174 -171 107 0
-174 171 107 0
-174 -171 -107 0
175 110 -108 0
175 -110 108 0
-175 110 108 0
-175 -110 -108 0
-176 171 0
-176 108 0
-176 107 -110 0
-176 -107 110 0
176 -171 107 110 -108 0
176 -171 -107 -110 -108 0
177 174 -105 0
177 -174 105 0
-177 174 105 0
-177 -174 -105 0
178 108 -106 0
178 -108 106 0
-178 108 106 0
-178 -108 -106 0
-179 174 0
-179 106 0
-179 105 -108 0
-179 -105 108 0
179 -174 105 108 -106 0
179 -174 -105 -108 -106 0
180 177 -103 0
180 -177 103 0
-180 177 103 0
-180 -177 -103 0
181 106 -104 0
181 -106 104 0
-181 106 104 0
-181 -106 -104 0
-182 177 0
-182 104 0
-182 103 -106 0
-182 -103 106 0
182 -177 103 106 -104 0
182 -177 -103 -106 -104 0
183 180 -101 0
183 -180 101 0
-183 180 101 0
-183 -180 -101 0
184 104 -102 0
184 -104 102 0
-184 104 102 0
-184 -104 -102 0
-185 180 0
-185 102 0
-185 101 -104 0
-185 -101 104 0
185 -180 101 104 -102 0
185 -180 -101 -104 -102 0
186 183 -99 0
186 -183 99 0
-186 183 99 0
-186 -183 -99 0
187 102 -100 0
187 -102 100 0
-187 102 100 0
-187 -102 -100 0
-188 183 0
-188 100 0
-188 99 -102 0
-188 -99 102 0
188 -183 99 102 -100 0
188 -183 -99 -102 -100 0
189 186 -97 0
189 -186 97 0
-189 186 97 0
-189 -186 -97 0
190 100 -98 0
190 -100 98 0
-190 100 98 0
-190 -100 -98 0
-191 186 0
-191 98 0
-191 97 -100 0
-191 -97 100 0
191 -186 97 100 -98 0
191 -186 -97 -100 -98 0
192 189 -95 0
192 -189 95 0
-192 189 95 0
-192 -189 -95 0
193 98 -96 0
193 -98 96 0
-193 98 96 0
-193 -98 -96 0
-194 189 0
-194 96 0
-194 95 -98 0
-194 -95 98 0
194 -189 95 98 -96 0
194 -189 -95 -98 -96 0
195 192 -93 0
195 -192 93 0
-195 192 93 0
-195 -192 -93 0
196 96 -94 0
196 -96 94 0
-196 96 94 0
-196 -96 -94 0
-197 192 0
-197 94 0
-197 93 -96 0
-197 -93 96 0
197 -192 93 96 -94 0
197 -192 -93 -96 -94 0
198 195 -91 0
198 -195 91 0
-198 195 91 0
-198 -195 -91 0
199 94 -92 0
199 -94 92 0
-199 94 92 0
-199 -94 -92 0
-200 195 0
-200 92 0
-200 91 -94 0
-200 -91 94 0
200 -195 91 94 -92 0
200 -195 -91 -94 -92 0
201 198 -89 0
201 -198 89 0
-201 198 89 0
-201 -198 -89 0
202 92 -90 0
202 -92 90 0
-202 92 90 0
-202 -92 -90 0
-203 198 0
-203 90 0
-203 89 -92 0
-203 -89 92 0
203 -198 89 92 -90 0
203 -198 -89 -92 -90 0
204 201 -87 0
204 -201 87 0
-204 201 87 0
-204 -201 -87 0
205 90 -88 0
205 -90 88 0
-205 90 88 0
-205 -90 -88 0
-206 201 0
-206 88 0
-206 87 -90 0
-206 -87 90 0
206 -201 87 90 -88 0
206 -201 -87 -90 -88 0
207 204 -85 0
207 -204 85 0
-207 204 85 0
-207 -204 -85 0
208 88 -86 0
208 -88 86 0
-208 88 86 0
-208 -88 -86 0
-209 204 0
-209 86 0
-209 85 -88 0
-209 -85 88 0
209 -204 85 88 -86 0
209 -204 -85 -88 -86 0
210 207 -83 0
210 -207 83 0
-210 207 83 0
-210 -207 -83 0
211 86 -84 0
211 -86 84 0
-211 86 84 0
-211 -86 -84 0
-212 207 0
-212 84 0
-212 83 -86 0
-212 -83 86 0
212 -207 83 86 -84 0
212 -207 -83 -86 -84 0
213 210 -81 0
213 -210 81 0
-213 210 81 0
-213 -210 -81 0
214 84 -82 0
214 -84 82 0
-214 84 82 0
-214 -84 -82 0
-215 210 0
-215 82 0
-215 81 -84 0
-215 -81 84 0
215 -210 81 84 -82 0
215 -210 -81 -84 -82 0
216 213 -79 0
216 -213 79 0
-216 213 79 0
-216 -213 -79 0
217 82 -80 0
217 -82 80 0
-217 82 80 0
-217 -82 -80 0
-218 213 0
-218 80 0
-218 79 -82 0
-218 -79 82 0
218 -213 79 82 -80 0
218 -213 -79 -82 -80 0
219 216 -77 0
219 -216 77 0
-219 216 77 0
-219 -216 -77 0
220 80 -78 0
220 -80 78 0
-220 80 78 0
-220 -80 -78 0
-221 216 0
-221 78 0
-221 77 -80 0
-221 -77 80 0
221 -216 77 80 -78 0
221 -216 -77 -80 -78 0
222 219 -75 0
222 -219 75 0
-222 219 75 0
-222 -219 -75 0
223 78 -76 0
223 -78 76 0
-223 78 76 0
-223 -78 -76 0
-224 219 0
-224 76 0
-224 75 -78 0
-224 -75 78 0
224 -219 75 78 -76 0
224 -219 -75 -78 -76 0
225 222 -73 0
225 -222 73 0
-225 222 73 0
-225 -222 -73 0
226 76 -74 0
226 -76 74 0
-226 76 74 0
-226 -76 -74 0
-227 222 0
-227 74 0
-227 73 -76 0
-227 -73 76 0
227 -222 73 76 -74 0
227 -222 -73 -76 -74 0
228 225 -71 0
228 -225 71 0
-228 225 71 0
-228 -225 -71 0
229 74 -72 0
229 -74 72 0
-229 74 72 0
-229 -74 -72 0
-230 225 0
-230 72 0
-230 71 -74 0
-230 -71 74 0
230 -225 71 74 -72 0
230 -225 -71 -74 -72 0
231 228 -69 0
231 -228 69 0
-231 228 69 0
-231 -228 -69 0
232 72 -70 0
232 -72 70 0
-232 72 70 0
-232 -72 -70 0
-233 228 0
-233 70 0
-233 69 -72 0
-233 -69 72 0
233 -228 69 72 -70 0
233 -228 -69 -72 -70 0
234 231 -67 0
234 -231 67 0
-234 231 67 0
-234 -231 -67 0
235 70 -68 0
235 -70 68 0
-235 70 68 0
-235 -70 -68 0
-236 231 0
-236 68 0
-236 67 -70 0
-236 -67 70 0
236 -231 67 70 -68 0
236 -231 -67 -70 -68 0
237 234 -65 0
237 -234 65 0
-237 234 65 0
-237 -234 -65 0
238 68 -66 0
238 -68 66 0
-238 68 66 0
-238 -68 -66 0
-239 234 0
-239 66 0
-239 65 -68 0
-239 -65 68 0
239 -234 65 68 -66 0
239 -234 -65 -68 -66 0
240 237 -63 0
240 -237 63 0
-240 237 63 0
-240 -237 -63 0
241 66 -64 0
241 -66 64 0
-241 66 64 0
-241 -66 -64 0
-242 237 0
-242 64 0
-242 63 -66 0
-242 -63 66 0
242 -237 63 66 -64 0
242 -237 -63 -66 -64 0
243 240 -61 0
243 -240 61 0
-243 240 61 0
-243 -240 -61 0
244 64 -62 0
244 -64 62 0
-244 64 62 0
-244 -64 -62 0
-245 240 0
-245 62 0
-245 61 -64 0
-245 -61 64 0
245 -240 61 64 -62 0
245 -240 -61 -64 -62 0
246 243 -59 0
246 -243 59 0
-246 243 59 0
-246 -243 -59 0
247 62 -60 0
247 -62 60 0
-247 62 60 0
-247 -62 -60 0
-248 243 0
-248 60 0
-248 59 -62 0
-248 -59 62 0
248 -243 59 62 -60 0
248 -243 -59 -62 -60 0
249 246 -57 0
249 -246 57 0
-249 246 57 0
-249 -246 -57 0
250 60 -58 0
250 -60 58 0
-250 60 58 0
-250 -60 -58 0
-251 246 0
-251 58 0
-251 57 -60 0
-251 -57 60 0
251 -246 57 60 -58 0
251 -246 -57 -60 -58 0
252 249 -55 0
252 -249 55 0
-252 249 55 0
-252 -249 -55 0
253 58 -56 0
253 -58 56 0
-253 58 56 0
-253 -58 -56 0
-254 249 0
-254 56 0
-254 55 -58 0
-254 -55 58 0
254 -249 55 58 -56 0
254 -249 -55 -58 -56 0
255 252 -53 0
255 -252 53 0
-255 252 53 0
-255 -252 -53 0
256 56 -54 0
256 -56 54 0
-256 56 54 0
-256 -56 -54 0
-257 252 0
-257 54 0
-257 53 -56 0
-257 -53 56 0
257 -252 53 56 -54 0
257 -252 -53 -56 -54 0
258 255 -51 0
258 -255 51 0
-258 255 51 0
-258 -255 -51 0
259 54 -52 0
259 -54 52 0
-259 54 52 0
-259 -54 -52 0
-260 255 0
-260 52 0
-260 51 -54 0
-260 -51 54 0
260 -255 51 54 -52 0
260 -255 -51 -54 -52 0
261 258 -49 0
261 -258 49 0
-261 258 49 0
-261 -258 -49 0
262 52 -50 0
262 -52 50 0
-262 52 50 0
-262 -52 -50 0
-263 258 0
-263 50 0
-263 49 -52 0
-263 -49 52 0
263 -258 49 52 -50 0
263 -258 -49 -52 -50 0
264 261 -47 0
264 -261 47 0
-264 261 47 0
-264 -261 -47 0
265 50 -48 0
265 -50 48 0
-265 50 48 0
-265 -50 -48 0
-266 261 0
-266 48 0
-266 47 -50 0
-266 -47 50 0
266 -261 47 50 -48 0
266 -261 -47 -50 -48 0
267 264 -45 0
267 -264 45 0
-267 264 45 0
-267 -264 -45 0
268 48 -46 0
268 -48 46 0
-268 48 46 0
-268 -48 -46 0
-269 264 0
-269 46 0
-269 45 -48 0
-269 -45 48 0
269 -264 45 48 -46 0
269 -264 -45 -48 -46 0
270 267 -43 0
270 -267 43 0
-270 267 43 0
-270 -267 -43 0
271 46 -44 0
271 -46 44 0
-271 46 44 0
-271 -46 -44 0
-272 267 0
-272 44 0
-272 43 -46 0
-272 -43 46 0
272 -267 43 46 -44 0
272 -267 -43 -46 -44 0
273 270 -41 0
273 -270 41 0
-273 270 41 0
-273 -270 -41 0
274 44 -42 0
274 -44 42 0
-274 44 42 0
-274 -44 -42 0
-275 270 0
-275 42 0
-275 41 -44 0
-275 -41 44 0
275 -270 41 44 -42 0
275 -270 -41 -44 -42 0
276 273 -39 0
276 -273 39 0
-276 273 39 0
-276 -273 -39 0
277 42 -40 0
277 -42 40 0
-277 42 40 0
-277 -42 -40 0
-278 273 0
-278 40 0
-278 39 -42 0
-278 -39 42 0
278 -273 39 42 -40 0
278 -273 -39 -42 -40 0
279 276 -37 0
279 -276 37 0
-279 276 37 0
-279 -276 -37 0
280 40 -38 0
280 -40 38 0
-280 40 38 0
-280 -40 -38 0
-281 276 0
-281 38 0
-281 37 -40 0
-281 -37 40 0
281 -276 37 40 -38 0
281 -276 -37 -40 -38 0
282 279 -35 0
282 -279 35 0
-282 279 35 0
-282 -279 -35 0
283 38 -36 0
283 -38 36 0
-283 38 36 0
-283 -38 -36 0
-284 279 0
-284 36 0
-284 35 -38 0
-284 -35 38 0
284 -279 35 38 -36 0
284 -279 -35 -38 -36 0
285 282 -33 0
285 -282 33 0
-285 282 33 0
-285 -282 -33 0
286 36 -34 0
286 -36 34 0
-286 36 34 0
-286 -36 -34 0
-287 282 0
-287 34 0
-287 33 -36 0
-287 -33 36 0
287 -282 33 36 -34 0
287 -282 -33 -36 -34 0
288 285 -31 0
288 -285 31 0
-288 285 31 0
-288 -285 -31 0
289 34 -32 0
289 -34 32 0
-289 34 32 0
-289 -34 -32 0
-290 285 0
-290 32 0
-290 31 -34 0
-290 -31 34 0
290 -285 31 34 -32 0
290 -285 -31 -34 -32 0
291 288 -29 0
291 -288 29 0
-291 288 29 0
-291 -288 -29 0
292 32 -30 0
292 -32 30 0
-292 32 30 0
-292 -32 -30 0
-293 288 0
-293 30 0
-293 29 -32 0
-293 -29 32 0
293 -288 29 32 -30 0
293 -288 -29 -32 -30 0
294 291 -27 0
294 -291 27 0
-294 291 27 0
-294 -291 -27 0
295 30 -28 0
295 -30 28 0
-295 30 28 0
-295 -30 -28 0
-296 291 0
-296 28 0
-296 27 -30 0
-296 -27 30 0
296 -291 27 30 -28 0
296 -291 -27 -30 -28 0
297 294 -25 0
297 -294 25 0
-297 294 25 0
-297 -294 -25 0
298 28 -26 0
298 -28 26 0
-298 28 26 0
-298 -28 -26 0
-299 294 0
-299 26 0
-299 25 -28 0
-299 -25 28 0
299 -294 25 28 -26 0
299 -294 -25 -28 -26 0
300 297 -23 0
300 -297 23 0
-300 297 23 0
-300 -297 -23 0
301 26 -24 0
301 -26 24 0
-301 26 24 0
-301 -26 -24 0
-302 297 0
-302 24 0
-302 23 -26 0
-302 -23 26 0
302 -297 23 26 -24 0
302 -297 -23 -26 -24 0
303 300 -21 0
303 -300 21 0
-303 300 21 0
-303 -300 -21 0
304 24 -22 0
304 -24 22 0
-304 24 22 0
-304 -24 -22 0
-305 300 0
-305 22 0
-305 21 -24 0
-305 -21 24 0
305 -300 21 24 -22 0
305 -300 -21 -24 -22 0
306 303 -19 0
306 -303 19 0
-306 303 19 0
-306 -303 -19 0
307 22 -20 0
307 -22 20 0
-307 22 20 0
-307 -22 -20 0
-308 303 0
-308 20 0
-308 19 -22 0
-308 -19 22 0
308 -303 19 22 -20 0
308 -303 -19 -22 -20 0
309 306 -17 0
309 -306 17 0
-309 306 17 0
-309 -306 -17 0
310 20 -18 0
310 -20 18 0
-310 20 18 0
-310 -20 -18 0
-311 306 0
-311 18 0
-311 17 -20 0
-311 -17 20 0
311 -306 17 20 -18 0
311 -306 -17 -20 -18 0
312 309 -15 0
312 -309 15 0
-312 309 15 0
-312 -309 -15 0
313 18 -16 0
313 -18 16 0
-313 18 16 0
-313 -18 -16 0
-314 309 0
-314 16 0
-314 15 -18 0
-314 -15 18 0
314 -309 15 18 -16 0
314 -309 -15 -18 -16 0
315 312 -13 0
315 -312 13 0
-315 312 13 0
-315 -312 -13 0
316 16 -14 0
316 -16 14 0
-316 16 14 0
-316 -16 -14 0
-317 312 0
-317 14 0
-317 13 -16 0
-317 -13 16 0
317 -312 13 16 -14 0
317 -312 -13 -16 -14 0
318 315 -11 0
318 -315 11 0
-318 315 11 0
-318 -315 -11 0
319 14 -12 0
319 -14 12 0
-319 14 12 0
-319 -14 -12 0
-320 315 0
-320 12 0
-320 11 -14 0
-320 -11 14 0
320 -315 11 14 -12 0
320 -315 -11 -14 -12 0
321 318 -9 0
321 -318 9 0
-321 318 9 0
-321 -318 -9 0
322 12 -10 0
322 -12 10 0
-322 12 10 0
-322 -12 -10 0
-323 318 0
-323 10 0
-323 9 -12 0
-323 -9 12 0
323 -318 9 12 -10 0
323 -318 -9 -12 -10 0
324 321 -7 0
324 -321 7 0
-324 321 7 0
-324 -321 -7 0
325 10 -8 0
325 -10 8 0
-325 10 8 0
-325 -10 -8 0
-326 321 0
-326 8 0
-326 7 -10 0
-326 -7 10 0
326 -321 7 10 -8 0
326 -321 -7 -10 -8 0
327 324 -5 0
327 -324 5 0
-327 324 5 0
-327 -324 -5 0
328 8 -6 0
328 -8 6 0
-328 8 6 0
-328 -8 -6 0
-329 324 0
-329 6 0
-329 5 -8 0
-329 -5 8 0
329 -324 5 8 -6 0
329 -324 -5 -8 -6 0
330 327 -3 0
330 -327 3 0
-330 327 3 0
-330 -327 -3 0
331 6 -4 0
331 -6 4 0
-331 6 4 0
-331 -6 -4 0
-332 327 0
-332 4 0
-332 3 -6 0
-332 -3 6 0
332 -327 3 6 -4 0
332 -327 -3 -6 -4 0
333 330 -1 0
333 -330 1 0
-333 330 1 0
-333 -330 -1 0
334 4 -2 0
334 -4 2 0
-334 4 2 0
-334 -4 -2 0
-335 330 0
-335 2 0
-335 1 -4 0
-335 -1 4 0
335 -330 1 4 -2 0
335 -330 -1 -4 -2 0
-333 0
-330 0
-334 0
-327 0
-331 0
-324 0
-328 0
-321 0
-325 0
-318 0
-322 0
-315 0
-319 0
-312 0
-316 0
-309 0
-313 0
-306 0
-310 0
-303 0
-307 0
-300 0
-304 0
-297 0
-301 0
-294 0
-298 0
-291 0
-295 0
-288 0
-292 0
-285 0
-289 0
-282 0
-286 0
-279 0
-283 0
-276 0
-280 0
-273 0
-277 0
-270 0
-274 0
-267 0
-271 0
-264 0
-268 0
-261 0
-265 0
-258 0
-262 0
-255 0
-259 0
-252 0
-256 0
-249 0
-253 0
-246 0
-250 0
-243 0
-247 0
-240 0
-244 0
-237 0
-241 0
-234 0
-238 0
-231 0
-235 0
-228 0
-232 0
-225 0
-229 0
-222 0
-226 0
-219 0
-223 0
-216 0
-220 0
-213 0
-217 0
-210 0
-214 0
-207 0
-211 0
-204 0
-208 0
-201 0
-205 0
-198 0
-202 0
-195 0
-199 0
-192 0
-196 0
-189 0
-193 0
-186 0
-190 0
-183 0
-187 0
-180 0
-184 0
-177 0
-181 0
-174 0
-178 0
-171 0
-175 0
-168 0
-172 0
-165 0
-169 0
-162 0
-166 0
-159 0
-163 0
-156 0
-160 0
-153 0
-157 0
-150 0
-154 0
-147 0
-151 0
-144 0
-148 0
-141 0
-145 0
-135 0
-142 0
